1949368
19,20,95,29,31,12,71,35,98,37,61,67,62,30,54,79,3,6,42,58,18,25,10,33,23,53,89,64,51,24,28,21,83,91,72,78,77,93,80,13,50,39,11,16,70,45,27,97,22,57,81,82,59,17,76,55,40,5,85,44,0,36,73,69,65,46,32,8,94,38,1,26,63,52,7,43,92,9,74,68,48,90,88,2,4,84,41,96,49,87,86,75,66,15,14,34,60,47,56
